solution status: optimal solution found
objective value:                                    4
c0                                                  1 	(obj:1)
c1                                                  1 	(obj:1)
c2                                                  1 	(obj:1)
c3                                                  1 	(obj:1)
x253_254_0                                          1 	(obj:0)
x181_182_1                                          1 	(obj:0)
x120_127_2                                          1 	(obj:0)
x247_250_2                                          1 	(obj:0)
x45_47_0                                            1 	(obj:0)
x221_222_1                                          1 	(obj:0)
x211_214_2                                          1 	(obj:0)
x96_103_1                                           1 	(obj:0)
x352_353_1                                          1 	(obj:0)
x84_85_1                                            1 	(obj:0)
x253_268_1                                          1 	(obj:0)
x132_139_0                                          1 	(obj:0)
x246_251_0                                          1 	(obj:0)
x216_217_0                                          1 	(obj:0)
x209_214_0                                          1 	(obj:0)
x361_362_0                                          1 	(obj:0)
x41_42_0                                            1 	(obj:0)
x222_227_0                                          1 	(obj:0)
x156_157_0                                          1 	(obj:0)
x86_87_0                                            1 	(obj:0)
x165_167_3                                          1 	(obj:0)
x74_75_0                                            1 	(obj:0)
x126_131_0                                          1 	(obj:0)
x108_109_0                                          1 	(obj:0)
x181_196_0                                          1 	(obj:0)
x316_317_0                                          1 	(obj:0)
x104_106_0                                          1 	(obj:0)
x336_343_0                                          1 	(obj:0)
x185_190_0                                          1 	(obj:0)
x180_187_0                                          1 	(obj:0)
x375_381_2                                          1 	(obj:0)
x234_239_2                                          1 	(obj:0)
x375_376_0                                          1 	(obj:0)
x315_321_1                                          1 	(obj:0)
x36_37_0                                            1 	(obj:0)
x301_302_2                                          1 	(obj:0)
x295_297_0                                          1 	(obj:0)
x339_340_2                                          1 	(obj:0)
x134_135_1                                          1 	(obj:0)
x67_70_2                                            1 	(obj:0)
x116_118_0                                          1 	(obj:0)
x147_148_0                                          1 	(obj:0)
x372_378_2                                          1 	(obj:0)
x92_95_0                                            1 	(obj:0)
x290_296_0                                          1 	(obj:0)
x224_227_1                                          1 	(obj:0)
x120_121_0                                          1 	(obj:0)
x279_285_0                                          1 	(obj:0)
x20_23_1                                            1 	(obj:0)
x187_189_2                                          1 	(obj:0)
x259_261_2                                          1 	(obj:0)
x255_256_1                                          1 	(obj:0)
x128_130_2                                          1 	(obj:0)
x303_309_2                                          1 	(obj:0)
x90_95_1                                            1 	(obj:0)
x74_80_2                                            1 	(obj:0)
x280_281_0                                          1 	(obj:0)
x369_371_0                                          1 	(obj:0)
x1_16_0                                             1 	(obj:0)
x344_346_0                                          1 	(obj:0)
x240_247_3                                          1 	(obj:0)
x248_250_0                                          1 	(obj:0)
x341_342_0                                          1 	(obj:0)
x289_290_1                                          1 	(obj:0)
x2_8_3                                              1 	(obj:0)
x85_86_2                                            1 	(obj:0)
x189_191_0                                          1 	(obj:0)
x73_74_1                                            1 	(obj:0)
x279_280_2                                          1 	(obj:0)
x98_104_1                                           1 	(obj:0)
x260_263_2                                          1 	(obj:0)
x9_11_3                                             1 	(obj:0)
x137_138_0                                          1 	(obj:0)
x16_17_2                                            1 	(obj:0)
x220_221_0                                          1 	(obj:0)
x122_123_1                                          1 	(obj:0)
x195_196_1                                          1 	(obj:0)
x184_185_3                                          1 	(obj:0)
x312_318_0                                          1 	(obj:0)
x173_178_0                                          1 	(obj:0)
x61_76_2                                            1 	(obj:0)
x159_165_0                                          1 	(obj:0)
x281_286_2                                          1 	(obj:0)
x26_32_0                                            1 	(obj:0)
x365_366_2                                          1 	(obj:0)
x195_201_2                                          1 	(obj:0)
x348_354_3                                          1 	(obj:0)
x285_287_1                                          1 	(obj:0)
x31_34_2                                            1 	(obj:0)
x277_278_0                                          1 	(obj:0)
x84_91_0                                            1 	(obj:0)
x240_241_0                                          1 	(obj:0)
x300_306_2                                          1 	(obj:0)
x350_351_2                                          1 	(obj:0)
x307_309_1                                          1 	(obj:0)
x229_230_2                                          1 	(obj:0)
x0_7_2                                              1 	(obj:0)
x242_243_2                                          1 	(obj:0)
x204_211_0                                          1 	(obj:0)
x210_215_0                                          1 	(obj:0)
x256_257_3                                          1 	(obj:0)
x49_50_1                                            1 	(obj:0)
x170_171_0                                          1 	(obj:0)
x80_83_1                                            1 	(obj:0)
x231_232_3                                          1 	(obj:0)
x81_83_2                                            1 	(obj:0)
x337_338_2                                          1 	(obj:0)
x364_365_0                                          1 	(obj:0)
x152_155_0                                          1 	(obj:0)
x169_170_1                                          1 	(obj:0)
x305_310_1                                          1 	(obj:0)
x337_352_0                                          1 	(obj:0)
x24_31_0                                            1 	(obj:0)
x12_19_2                                            1 	(obj:0)
x288_294_1                                          1 	(obj:0)
x351_352_3                                          1 	(obj:0)
x254_255_2                                          1 	(obj:0)
x61_62_0                                            1 	(obj:0)
x228_229_0                                          1 	(obj:0)
x268_269_0                                          1 	(obj:0)
x133_148_1                                          1 	(obj:0)
x63_64_1                                            1 	(obj:0)
x333_335_2                                          1 	(obj:0)
x96_97_0                                            1 	(obj:0)
x357_359_1                                          1 	(obj:0)
x216_222_2                                          1 	(obj:0)
x36_42_1                                            1 	(obj:0)
x50_51_0                                            1 	(obj:0)
x218_219_0                                          1 	(obj:0)
x36_43_3                                            1 	(obj:0)
x233_238_0                                          1 	(obj:0)
x24_25_2                                            1 	(obj:0)
x151_153_0                                          1 	(obj:0)
x48_54_3                                            1 	(obj:0)
x206_212_2                                          1 	(obj:0)
x193_208_0                                          1 	(obj:0)
x48_49_2                                            1 	(obj:0)
x349_350_0                                          1 	(obj:0)
x362_363_2                                          1 	(obj:0)
x258_263_1                                          1 	(obj:0)
x134_140_0                                          1 	(obj:0)
x291_292_0                                          1 	(obj:0)
x152_154_2                                          1 	(obj:0)
x216_223_3                                          1 	(obj:0)
x225_227_2                                          1 	(obj:0)
x110_116_3                                          1 	(obj:0)
x266_267_0                                          1 	(obj:0)
x185_186_1                                          1 	(obj:0)
x314_320_1                                          1 	(obj:0)
x135_136_0                                          1 	(obj:0)
x138_143_1                                          1 	(obj:0)
x329_334_1                                          1 	(obj:0)
x135_141_2                                          1 	(obj:0)
x64_65_2                                            1 	(obj:0)
x308_310_0                                          1 	(obj:0)
x272_274_2                                          1 	(obj:0)
x284_287_0                                          1 	(obj:0)
x140_142_1                                          1 	(obj:0)
x162_167_0                                          1 	(obj:0)
x270_275_1                                          1 	(obj:0)
x173_174_1                                          1 	(obj:0)
x302_308_1                                          1 	(obj:0)
x170_176_3                                          1 	(obj:0)
x317_322_2                                          1 	(obj:0)
x125_130_1                                          1 	(obj:0)
x354_359_0                                          1 	(obj:0)
x68_71_2                                            1 	(obj:0)
x55_58_3                                            1 	(obj:0)
x373_374_1                                          1 	(obj:0)
x168_169_2                                          1 	(obj:0)
x356_358_0                                          1 	(obj:0)
x264_265_1                                          1 	(obj:0)
x175_177_2                                          1 	(obj:0)
x147_153_3                                          1 	(obj:0)
x0_1_1                                              1 	(obj:0)
x252_259_0                                          1 	(obj:0)
x92_94_2                                            1 	(obj:0)
x163_165_2                                          1 	(obj:0)
x97_112_1                                           1 	(obj:0)
x17_18_1                                            1 	(obj:0)
x156_163_1                                          1 	(obj:0)
x296_298_1                                          1 	(obj:0)
x290_291_2                                          1 	(obj:0)
x236_238_2                                          1 	(obj:0)
x205_206_0                                          1 	(obj:0)
x111_112_3                                          1 	(obj:0)
x62_63_2                                            1 	(obj:0)
x112_113_0                                          1 	(obj:0)
x293_298_3                                          1 	(obj:0)
x363_364_3                                          1 	(obj:0)
x66_71_0                                            1 	(obj:0)
x91_94_3                                            1 	(obj:0)
x18_23_2                                            1 	(obj:0)
x254_260_1                                          1 	(obj:0)
x348_349_1                                          1 	(obj:0)
x158_159_2                                          1 	(obj:0)
x39_45_1                                            1 	(obj:0)
x4_5_1                                              1 	(obj:0)
x60_61_1                                            1 	(obj:0)
x14_15_1                                            1 	(obj:0)
x272_275_0                                          1 	(obj:0)
x296_299_2                                          1 	(obj:0)
x180_181_2                                          1 	(obj:0)
x380_383_2                                          1 	(obj:0)
x37_52_1                                            1 	(obj:0)
x25_40_0                                            1 	(obj:0)
x376_377_2                                          1 	(obj:0)
x65_66_3                                            1 	(obj:0)
x228_234_1                                          1 	(obj:0)
x150_155_2                                          1 	(obj:0)
x245_250_1                                          1 	(obj:0)
x257_262_2                                          1 	(obj:0)
x51_57_1                                            1 	(obj:0)
x205_220_3                                          1 	(obj:0)
x89_90_2                                            1 	(obj:0)
x374_375_3                                          1 	(obj:0)
x132_133_2                                          1 	(obj:0)
x113_118_1                                          1 	(obj:0)
x276_282_0                                          1 	(obj:0)
x261_263_3                                          1 	(obj:0)
x313_314_3                                          1 	(obj:0)
x326_332_1                                          1 	(obj:0)
x317_318_1                                          1 	(obj:0)
x103_105_2                                          1 	(obj:0)
x362_368_1                                          1 	(obj:0)
x289_304_2                                          1 	(obj:0)
x101_106_1                                          1 	(obj:0)
x72_78_2                                            1 	(obj:0)
x12_13_1                                            1 	(obj:0)
x157_158_3                                          1 	(obj:0)
x101_102_0                                          1 	(obj:0)
x257_258_0                                          1 	(obj:0)
x237_239_1                                          1 	(obj:0)
x302_303_0                                          1 	(obj:0)
x159_160_1                                          1 	(obj:0)
x99_100_3                                           1 	(obj:0)
x67_69_1                                            1 	(obj:0)
x137_142_2                                          1 	(obj:0)
x105_107_0                                          1 	(obj:0)
x60_66_2                                            1 	(obj:0)
x363_369_1                                          1 	(obj:0)
x115_118_2                                          1 	(obj:0)
x209_210_1                                          1 	(obj:0)
x325_326_2                                          1 	(obj:0)
x368_370_0                                          1 	(obj:0)
x102_107_1                                          1 	(obj:0)
x212_214_1                                          1 	(obj:0)
x168_175_3                                          1 	(obj:0)
x171_177_1                                          1 	(obj:0)
x300_301_1                                          1 	(obj:0)
x175_178_1                                          1 	(obj:0)
x161_166_1                                          1 	(obj:0)
x212_215_3                                          1 	(obj:0)
x110_111_0                                          1 	(obj:0)
x312_313_1                                          1 	(obj:0)
x230_236_1                                          1 	(obj:0)
x72_73_0                                            1 	(obj:0)
x360_366_0                                          1 	(obj:0)
x75_76_3                                            1 	(obj:0)
x180_186_3                                          1 	(obj:0)
x50_56_2                                            1 	(obj:0)
x192_193_1                                          1 	(obj:0)
x314_315_0                                          1 	(obj:0)
x55_57_0                                            1 	(obj:0)
x116_119_2                                          1 	(obj:0)
x303_304_1                                          1 	(obj:0)
x123_129_0                                          1 	(obj:0)
x348_355_0                                          1 	(obj:0)
x38_39_0                                            1 	(obj:0)
x56_58_0                                            1 	(obj:0)
x201_203_1                                          1 	(obj:0)
x211_213_1                                          1 	(obj:0)
x29_34_0                                            1 	(obj:0)
x30_35_0                                            1 	(obj:0)
x37_38_2                                            1 	(obj:0)
x260_262_0                                          1 	(obj:0)
x168_174_0                                          1 	(obj:0)
x340_341_1                                          1 	(obj:0)
x75_81_1                                            1 	(obj:0)
x350_356_1                                          1 	(obj:0)
x278_279_1                                          1 	(obj:0)
x282_287_2                                          1 	(obj:0)
x144_151_2                                          1 	(obj:0)
x65_70_1                                            1 	(obj:0)
x245_246_3                                          1 	(obj:0)
x292_293_1                                          1 	(obj:0)
x114_119_0                                          1 	(obj:0)
x248_251_1                                          1 	(obj:0)
x208_209_2                                          1 	(obj:0)
x44_47_2                                            1 	(obj:0)
x3_4_0                                              1 	(obj:0)
x121_136_3                                          1 	(obj:0)
x68_70_0                                            1 	(obj:0)
x146_147_2                                          1 	(obj:0)
x309_311_0                                          1 	(obj:0)
x14_20_0                                            1 	(obj:0)
x281_282_1                                          1 	(obj:0)
x360_361_2                                          1 	(obj:0)
x99_105_1                                           1 	(obj:0)
x183_184_2                                          1 	(obj:0)
x349_364_2                                          1 	(obj:0)
x381_383_1                                          1 	(obj:0)
x300_307_0                                          1 	(obj:0)
x115_117_0                                          1 	(obj:0)
x312_319_2                                          1 	(obj:0)
x338_339_0                                          1 	(obj:0)
x204_205_1                                          1 	(obj:0)
x0_6_0                                              1 	(obj:0)
x128_131_1                                          1 	(obj:0)
x294_299_0                                          1 	(obj:0)
x219_220_2                                          1 	(obj:0)
x327_333_0                                          1 	(obj:0)
x231_237_2                                          1 	(obj:0)
x53_54_1                                            1 	(obj:0)
x187_190_1                                          1 	(obj:0)
x139_142_3                                          1 	(obj:0)
x161_162_3                                          1 	(obj:0)
x339_345_1                                          1 	(obj:0)
x243_244_0                                          1 	(obj:0)
x5_6_3                                              1 	(obj:0)
x6_11_1                                             1 	(obj:0)
x291_297_1                                          1 	(obj:0)
x39_40_2                                            1 	(obj:0)
x169_184_0                                          1 	(obj:0)
x25_26_1                                            1 	(obj:0)
x53_58_2                                            1 	(obj:0)
x240_246_1                                          1 	(obj:0)
x85_100_0                                           1 	(obj:0)
x206_207_3                                          1 	(obj:0)
x89_94_0                                            1 	(obj:0)
x265_266_2                                          1 	(obj:0)
x8_10_0                                             1 	(obj:0)
x151_154_1                                          1 	(obj:0)
x177_179_0                                          1 	(obj:0)
x249_251_2                                          1 	(obj:0)
x108_114_3                                          1 	(obj:0)
x372_373_0                                          1 	(obj:0)
x194_195_0                                          1 	(obj:0)
x307_310_2                                          1 	(obj:0)
x1_2_2                                              1 	(obj:0)
x338_344_1                                          1 	(obj:0)
x24_30_1                                            1 	(obj:0)
x244_245_2                                          1 	(obj:0)
x32_34_1                                            1 	(obj:0)
x136_137_1                                          1 	(obj:0)
x127_129_1                                          1 	(obj:0)
x108_115_1                                          1 	(obj:0)
x252_258_2                                          1 	(obj:0)
x77_78_1                                            1 	(obj:0)
x38_44_1                                            1 	(obj:0)
x305_306_0                                          1 	(obj:0)
x241_256_2                                          1 	(obj:0)
x104_107_2                                          1 	(obj:0)
x276_283_2                                          1 	(obj:0)
x117_119_1                                          1 	(obj:0)
x278_284_2                                          1 	(obj:0)
x17_22_0                                            1 	(obj:0)
x252_253_3                                          1 	(obj:0)
x124_125_0                                          1 	(obj:0)
x48_55_1                                            1 	(obj:0)
x343_345_2                                          1 	(obj:0)
x7_9_0                                              1 	(obj:0)
x78_83_0                                            1 	(obj:0)
x54_59_0                                            1 	(obj:0)
x353_354_2                                          1 	(obj:0)
x15_16_3                                            1 	(obj:0)
x20_22_2                                            1 	(obj:0)
x109_110_1                                          1 	(obj:0)
x379_382_2                                          1 	(obj:0)
x4_9_2                                              1 	(obj:0)
x200_203_0                                          1 	(obj:0)
x264_271_2                                          1 	(obj:0)
x182_188_0                                          1 	(obj:0)
x32_35_3                                            1 	(obj:0)
x200_202_2                                          1 	(obj:0)
x27_33_0                                            1 	(obj:0)
x19_22_1                                            1 	(obj:0)
x157_172_1                                          1 	(obj:0)
x325_340_0                                          1 	(obj:0)
x186_191_2                                          1 	(obj:0)
x277_292_3                                          1 	(obj:0)
x259_262_1                                          1 	(obj:0)
x267_273_1                                          1 	(obj:0)
x57_59_2                                            1 	(obj:0)
x283_285_3                                          1 	(obj:0)
x63_69_0                                            1 	(obj:0)
x129_131_2                                          1 	(obj:0)
x62_68_1                                            1 	(obj:0)
x97_98_2                                            1 	(obj:0)
x121_122_2                                          1 	(obj:0)
x111_117_2                                          1 	(obj:0)
x271_273_0                                          1 	(obj:0)
x378_383_0                                          1 	(obj:0)
x41_46_2                                            1 	(obj:0)
x374_380_0                                          1 	(obj:0)
x149_154_0                                          1 	(obj:0)
x164_167_1                                          1 	(obj:0)
x132_138_3                                          1 	(obj:0)
x109_124_3                                          1 	(obj:0)
x361_376_1                                          1 	(obj:0)
x76_77_0                                            1 	(obj:0)
x320_322_3                                          1 	(obj:0)
x87_93_2                                            1 	(obj:0)
x301_316_3                                          1 	(obj:0)
x321_323_3                                          1 	(obj:0)
x276_277_1                                          1 	(obj:0)
x77_82_2                                            1 	(obj:0)
x235_238_1                                          1 	(obj:0)
x139_141_1                                          1 	(obj:0)
x33_35_2                                            1 	(obj:0)
x224_226_0                                          1 	(obj:0)
x113_114_2                                          1 	(obj:0)
x176_178_2                                          1 	(obj:0)
x73_88_2                                            1 	(obj:0)
x158_164_0                                          1 	(obj:0)
x60_67_0                                            1 	(obj:0)
x367_369_2                                          1 	(obj:0)
x79_82_1                                            1 	(obj:0)
x88_89_3                                            1 	(obj:0)
x265_280_3                                          1 	(obj:0)
x80_82_0                                            1 	(obj:0)
x329_330_2                                          1 	(obj:0)
x145_146_0                                          1 	(obj:0)
x123_124_2                                          1 	(obj:0)
x264_270_0                                          1 	(obj:0)
x192_198_0                                          1 	(obj:0)
x174_179_2                                          1 	(obj:0)
x27_28_1                                            1 	(obj:0)
x368_371_2                                          1 	(obj:0)
x204_210_2                                          1 	(obj:0)
x269_270_2                                          1 	(obj:0)
x176_179_1                                          1 	(obj:0)
x56_59_1                                            1 	(obj:0)
x306_311_1                                          1 	(obj:0)
x141_143_0                                          1 	(obj:0)
x148_149_2                                          1 	(obj:0)
x228_235_2                                          1 	(obj:0)
x72_79_3                                            1 	(obj:0)
x380_382_1                                          1 	(obj:0)
x43_46_1                                            1 	(obj:0)
x164_166_2                                          1 	(obj:0)
x153_155_1                                          1 	(obj:0)
x365_370_1                                          1 	(obj:0)
x91_93_1                                            1 	(obj:0)
x13_28_0                                            1 	(obj:0)
x120_126_1                                          1 	(obj:0)
x199_202_1                                          1 	(obj:0)
x229_244_1                                          1 	(obj:0)
x51_52_2                                            1 	(obj:0)
x125_126_2                                          1 	(obj:0)
x241_242_1                                          1 	(obj:0)
x308_311_2                                          1 	(obj:0)
x163_166_0                                          1 	(obj:0)
x355_357_2                                          1 	(obj:0)
x288_289_0                                          1 	(obj:0)
x12_18_0                                            1 	(obj:0)
x183_189_1                                          1 	(obj:0)
x182_183_3                                          1 	(obj:0)
x221_226_2                                          1 	(obj:0)
x43_45_2                                            1 	(obj:0)
x344_347_2                                          1 	(obj:0)
x87_88_1                                            1 	(obj:0)
x331_333_1                                          1 	(obj:0)
x318_323_2                                          1 	(obj:0)
x2_3_1                                              1 	(obj:0)
x319_322_1                                          1 	(obj:0)
x266_272_1                                          1 	(obj:0)
x21_23_3                                            1 	(obj:0)
x341_346_2                                          1 	(obj:0)
x331_334_3                                          1 	(obj:0)
x7_10_1                                             1 	(obj:0)
x86_92_1                                            1 	(obj:0)
x232_233_1                                          1 	(obj:0)
x69_71_3                                            1 	(obj:0)
x355_358_1                                          1 	(obj:0)
x230_231_0                                          1 	(obj:0)
x313_328_2                                          1 	(obj:0)
x267_268_2                                          1 	(obj:0)
x328_329_0                                          1 	(obj:0)
x28_29_2                                            1 	(obj:0)
x360_367_1                                          1 	(obj:0)
x44_46_0                                            1 	(obj:0)
x353_358_3                                          1 	(obj:0)
x247_249_0                                          1 	(obj:0)
x160_161_0                                          1 	(obj:0)
x366_371_1                                          1 	(obj:0)
x194_200_1                                          1 	(obj:0)
x31_33_1                                            1 	(obj:0)
x29_30_3                                            1 	(obj:0)
x283_286_0                                          1 	(obj:0)
x49_64_0                                            1 	(obj:0)
x19_21_0                                            1 	(obj:0)
x149_150_1                                          1 	(obj:0)
x351_357_0                                          1 	(obj:0)
x192_199_2                                          1 	(obj:0)
x295_298_2                                          1 	(obj:0)
x324_331_0                                          1 	(obj:0)
x144_145_1                                          1 	(obj:0)
x145_160_2                                          1 	(obj:0)
x96_102_2                                           1 	(obj:0)
x255_261_0                                          1 	(obj:0)
x377_382_0                                          1 	(obj:0)
x13_14_2                                            1 	(obj:0)
x293_294_2                                          1 	(obj:0)
x171_172_2                                          1 	(obj:0)
x84_90_3                                            1 	(obj:0)
x207_213_0                                          1 	(obj:0)
x332_335_0                                          1 	(obj:0)
x133_134_3                                          1 	(obj:0)
x356_359_2                                          1 	(obj:0)
x324_325_1                                          1 	(obj:0)
x345_347_0                                          1 	(obj:0)
x332_334_2                                          1 	(obj:0)
x379_381_0                                          1 	(obj:0)
x319_321_0                                          1 	(obj:0)
x213_215_2                                          1 	(obj:0)
x217_218_1                                          1 	(obj:0)
x156_162_2                                          1 	(obj:0)
x40_41_1                                            1 	(obj:0)
x223_226_1                                          1 	(obj:0)
x172_173_3                                          1 	(obj:0)
x26_27_2                                            1 	(obj:0)
x271_274_3                                          1 	(obj:0)
x103_106_3                                          1 	(obj:0)
x52_53_0                                            1 	(obj:0)
x196_197_2                                          1 	(obj:0)
x219_225_1                                          1 	(obj:0)
x5_10_2                                             1 	(obj:0)
x8_11_2                                             1 	(obj:0)
x218_224_2                                          1 	(obj:0)
x273_275_2                                          1 	(obj:0)
x236_239_0                                          1 	(obj:0)
x207_208_1                                          1 	(obj:0)
x197_198_1                                          1 	(obj:0)
x326_327_3                                          1 	(obj:0)
x233_234_3                                          1 	(obj:0)
x188_190_2                                          1 	(obj:0)
x98_99_0                                            1 	(obj:0)
x144_150_0                                          1 	(obj:0)
x336_342_2                                          1 	(obj:0)
x127_130_0                                          1 	(obj:0)
x367_370_3                                          1 	(obj:0)
x342_347_1                                          1 	(obj:0)
x15_21_2                                            1 	(obj:0)
x372_379_1                                          1 	(obj:0)
x100_101_2                                          1 	(obj:0)
x198_203_2                                          1 	(obj:0)
x193_194_2                                          1 	(obj:0)
x42_47_3                                            1 	(obj:0)
x140_143_2                                          1 	(obj:0)
x242_248_3                                          1 	(obj:0)
x377_378_1                                          1 	(obj:0)
x188_191_1                                          1 	(obj:0)
x330_335_1                                          1 	(obj:0)
x297_299_3                                          1 	(obj:0)
x304_305_3                                          1 	(obj:0)
x197_202_0                                          1 	(obj:0)
x343_346_1                                          1 	(obj:0)
x223_225_0                                          1 	(obj:0)
x284_286_1                                          1 	(obj:0)
x217_232_2                                          1 	(obj:0)
x93_95_3                                            1 	(obj:0)
x315_316_2                                          1 	(obj:0)
x288_295_3                                          1 	(obj:0)
x243_249_1                                          1 	(obj:0)
x199_201_0                                          1 	(obj:0)
x269_274_1                                          1 	(obj:0)
x327_328_1                                          1 	(obj:0)
x320_323_0                                          1 	(obj:0)
x79_81_0                                            1 	(obj:0)
x122_128_0                                          1 	(obj:0)
x336_337_1                                          1 	(obj:0)
x146_152_1                                          1 	(obj:0)
x235_237_0                                          1 	(obj:0)
x324_330_3                                          1 	(obj:0)
